Data path: /scratch/opt/lxu/CFLG/benchmarks/random_B
Instance: r_25_0.2_58.txt
Result path: /scratch/opt/lxu/CFLG/results/random_B
Solver: Gurobi
Time limit: 7200
Formulation: LEVFP
Cover: Large
julia --project=. src/main.jl /scratch/opt/lxu/CFLG/benchmarks/random_B r_25_0.2_58.txt /scratch/opt/lxu/CFLG/results/random_B Gurobi 7200 LEVFP Large
The latest version of Julia in the `release` channel is 1.11.5+0.x64.linux.gnu. You currently have `1.11.4+0.x64.linux.gnu` installed. Run:

  juliaup update

in your terminal shell to install Julia 1.11.5+0.x64.linux.gnu and update the `release` channel to that version.
/scratch/opt/lxu/CFLG/benchmarks/random_B Gurobi 7200.0 /scratch/opt/lxu/CFLG/results/random_B r_25_0.2_58.txt LEVFP Large
/scratch/opt/lxu/CFLG/benchmarks/random_B/r_25_0.2_58.txt

 read graph
data loaded

problem_graph/original graph: node: 25/25 edge: 58/58 dlt: 1.3662485762083236 break_avg_len: 0.6831242881041618 break_max_len: 0.9946460943203358elapsed CPU time: 0.029382 seconds
Set parameter TokenServer to value "solice01.zib.de"
Set parameter Threads to value 1
Set parameter OutputFlag to value 1
Set parameter MIPGap to value 0.0001
Set parameter TimeLimit to value 7199.970618

 model loaded

Gurobi Optimizer version 12.0.1 build v12.0.1rc0 (linux64 - "Debian GNU/Linux 12 (bookworm)")

CPU model: Intel(R) Xeon(R) Gold 5122 CPU @ 3.60GHz, instruction set [SSE2|AVX|AVX2|AVX512]
Thread count: 8 physical cores, 16 logical processors, using up to 1 threads

Non-default parameters:
TimeLimit  7199.970618
Threads  1

Optimize a model with 5054 rows, 2226 columns and 14446 nonzeros
Model fingerprint: 0x8d323313
Variable types: 83 continuous, 2143 integer (2143 binary)
Coefficient statistics:
  Matrix range     [1e-06, 2e+00]
  Objective range  [1e+00, 1e+00]
  Bounds range     [3e-01, 1e+00]
  RHS range        [3e-01, 6e+00]
Found heuristic solution: objective 17.0000000
Presolve removed 1237 rows and 22 columns
Presolve time: 0.08s
Presolved: 3817 rows, 2204 columns, 13132 nonzeros
Variable types: 83 continuous, 2121 integer (2121 binary)

Root relaxation: objective 1.500000e+00, 1754 iterations, 0.06 seconds (0.10 work units)

    Nodes    |    Current Node    |     Objective Bounds      |     Work
 Expl Unexpl |  Obj  Depth IntInf | Incumbent    BestBd   Gap | It/Node Time

     0     0    1.50000    0   60   17.00000    1.50000  91.2%     -    0s
H    0     0                      16.0000000    1.50000  90.6%     -    0s
H    0     0                      15.0000000    1.50000  90.0%     -    0s
H    0     0                      12.0000000    1.50000  87.5%     -    0s
H    0     0                      11.0000000    1.50000  86.4%     -    0s
H    0     0                      10.0000000    1.50000  85.0%     -    0s
H    0     0                       9.0000000    1.50000  83.3%     -    0s
     0     0    1.50000    0  236    9.00000    1.50000  83.3%     -    0s
H    0     0                       6.0000000    1.50000  75.0%     -    0s
H    0     0                       4.0000000    1.50000  62.5%     -    0s
     0     0    1.50000    0  267    4.00000    1.50000  62.5%     -    0s
     0     0    1.56800    0  315    4.00000    1.56800  60.8%     -    0s
     0     0    1.57366    0  300    4.00000    1.57366  60.7%     -    0s
     0     0    1.65617    0  381    4.00000    1.65617  58.6%     -    1s
     0     0    1.69405    0  367    4.00000    1.69405  57.6%     -    1s
     0     0    1.76580    0  286    4.00000    1.76580  55.9%     -    1s
     0     0    1.77422    0  318    4.00000    1.77422  55.6%     -    1s
     0     0    1.81381    0  312    4.00000    1.81381  54.7%     -    1s
     0     0    1.82274    0  284    4.00000    1.82274  54.4%     -    1s
     0     0    1.85484    0  280    4.00000    1.85484  53.6%     -    1s
     0     0    1.85895    0  312    4.00000    1.85895  53.5%     -    1s
     0     0    1.85895    0  301    4.00000    1.85895  53.5%     -    1s
     0     0    1.85895    0  301    4.00000    1.85895  53.5%     -    1s
     0     0    1.86480    0  267    4.00000    1.86480  53.4%     -    1s
     0     0    1.86554    0  284    4.00000    1.86554  53.4%     -    1s
     0     0    1.86578    0  318    4.00000    1.86578  53.4%     -    2s
     0     0    1.86702    0  319    4.00000    1.86702  53.3%     -    2s
     0     0    1.86794    0  317    4.00000    1.86794  53.3%     -    2s
     0     0    1.88814    0  306    4.00000    1.88814  52.8%     -    2s
     0     0    1.88814    0  307    4.00000    1.88814  52.8%     -    2s
     0     0    1.88814    0  273    4.00000    1.88814  52.8%     -    2s
     0     0    1.91095    0  276    4.00000    1.91095  52.2%     -    2s
     0     0    1.91095    0  312    4.00000    1.91095  52.2%     -    2s
     0     0    1.91095    0  312    4.00000    1.91095  52.2%     -    2s
     0     0    1.91095    0  315    4.00000    1.91095  52.2%     -    2s
     0     0    1.91095    0  305    4.00000    1.91095  52.2%     -    2s
     0     0    1.91095    0  324    4.00000    1.91095  52.2%     -    2s
     0     0    1.91095    0  325    4.00000    1.91095  52.2%     -    2s
     0     0    1.91095    0  306    4.00000    1.91095  52.2%     -    2s
     0     0    2.00000    0  240    4.00000    2.00000  50.0%     -    2s
     0     0    2.00000    0  213    4.00000    2.00000  50.0%     -    2s
     0     0    2.00000    0  266    4.00000    2.00000  50.0%     -    2s
     0     0    2.00000    0  230    4.00000    2.00000  50.0%     -    2s
     0     0    2.00000    0  133    4.00000    2.00000  50.0%     -    2s
     0     0    2.00000    0  325    4.00000    2.00000  50.0%     -    3s
     0     0    2.00000    0  196    4.00000    2.00000  50.0%     -    3s
     0     0    2.00000    0  143    4.00000    2.00000  50.0%     -    3s
     0     2    2.00000    0  141    4.00000    2.00000  50.0%     -    3s
   133    79    2.00000    8  155    4.00000    2.00000  50.0%   123    5s
   768   391    3.00000   23  143    4.00000    2.22847  44.3%  98.2   10s
   775   396    3.00000   23  165    4.00000    2.22847  44.3%  97.4   16s
   780   399    3.00000   13  202    4.00000    2.22847  44.3%  96.7   20s
   796   409    2.24529   18  176    4.00000    2.22847  44.3%   156   25s
   882   408    3.00000   27   38    4.00000    2.22847  44.3%   162   30s
   976   401    3.00000   33  108    4.00000    2.22847  44.3%   169   35s
  1058   393    3.00000   27   51    4.00000    2.28829  42.8%   172   40s
  1221   386    3.00000   50   35    4.00000    2.31655  42.1%   167   45s
  1414   374    2.57677   16   84    4.00000    2.46018  38.5%   163   50s
  1677   324    3.00000   38   62    4.00000    2.58019  35.5%   155   55s
  1905   320     cutoff   32         4.00000    2.63566  34.1%   149   60s
  2218   344     cutoff   29         4.00000    2.75000  31.2%   143   65s
  2612   323    3.00000   22   34    4.00000    3.00000  25.0%   134   70s
  2958   323    3.00000   27   33    4.00000    3.00000  25.0%   127   75s
  3267   270    3.00000   24   16    4.00000    3.00000  25.0%   125   80s
  3643   232     cutoff   25         4.00000    3.00000  25.0%   123   85s
  4003   232    3.00000   34  102    4.00000    3.00000  25.0%   121   90s
  4423   170    3.00000   32  111    4.00000    3.00000  25.0%   120   96s
  4679   129    3.00000   37  131    4.00000    3.00000  25.0%   122  100s
  5131    25    3.00000   35   71    4.00000    3.00000  25.0%   121  105s

Cutting planes:
  Cover: 81
  Implied bound: 19
  Projected implied bound: 2
  Clique: 15
  MIR: 33
  StrongCG: 3
  Flow cover: 46
  GUB cover: 35
  Zero half: 4
  RLT: 16
  Relax-and-lift: 43
  BQP: 5

Explored 5275 nodes (649477 simplex iterations) in 105.87 seconds (126.53 work units)
Thread count was 1 (of 16 available processors)

Solution count 10: 4 4 6 ... 16

Optimal solution found (tolerance 1.00e-04)
Best objective 4.000000000000e+00, best bound 4.000000000000e+00, gap 0.0000%

User-callback calls 41488, time in user-callback 0.05 sec
Stat(MathOptInterface.OPTIMAL, 4.0, 4.0, 0.0, 0.0, 0.029382, 105.87481117248535, 5275, Main.CFLG.LEVFP, "", #undef)
